letting n =  10
letting blocks =  [[1, 1], [1, 2], [1, 6], [1, 9], [1, 10], [2, 5], [3, 6], [3, 7], [3, 8], [3, 9], [4, 1], [4, 2], [4, 3], [4, 6], [4, 9], [5, 1], [5, 3], [5, 5], [6, 2], [6, 3], [6, 5], [6, 8], [7, 3], [7, 8], [7, 9], [7, 10], [8, 2], [8, 3], [8, 5], [8, 6], [9, 1], [9, 2], [9, 7], [9, 8], [10, 3], [10, 9]]
